c A SAT instance generated from a 3-CNF formula that had 40 clauses and 10 variables
p cnf 10 40
4 -10 7 0
-1 10 4 0
-2 4 -10 0
6 -7 -3 0
-6 9 4 0
-1 -2 -4 0
-3 -2 6 0
-3 9 10 0
-8 -3 4 0
6 4 7 0
-5 8 -4 0
9 2 7 0
4 -3 9 0
5 9 3 0
1 6 -5 0
3 -10 -7 0
2 10 8 0
-3 -6 10 0
-10 -7 5 0
1 10 4 0
4 -5 -2 0
6 9 1 0
1 -5 8 0
-5 6 -2 0
-3 -5 -1 0
10 2 8 0
9 -7 -8 0
-10 9 3 0
-6 -1 3 0
-2 8 4 0
-2 8 1 0
-6 -5 -10 0
5 -9 7 0
1 -5 -3 0
9 3 -10 0
-8 2 -3 0
-7 -9 -2 0
-8 7 6 0
-10 -7 2 0
3 -5 -6 0
